Route #1:
Route #2: 1
Route #3: 24 18 15 4 28
Route #4: 30
Route #5: 20 23 22 8
Route #6: 25
Route #7: 29
Route #8: 5
Route #9: 9 10 11 6 13 7
Route #10: 19 27 2 21 31
Route #11: 12
Route #12: 3 16
Route #13: 14
Route #14: 17
Route #15: 26

Cost: 2179.035789339076
